60
1 0 23
2 0 3
2 1 13
3 0 22
3 1 10
3 2 28
4 0 44
4 1 14
4 2 43
4 3 28
5 0 57
5 1 34
5 2 31
5 3 31
5 4 15
6 0 17
6 1 35
6 2 35
6 3 8
6 4 39
6 5 9
7 0 33
7 1 17
7 2 23
7 3 50
7 4 41
7 5 35
7 6 39
8 0 50
8 1 34
8 2 3
8 3 5
8 4 1
8 5 28
8 6 42
8 7 17
9 0 27
9 1 52
9 2 36
9 3 8
9 4 8
9 5 31
9 6 47
9 7 8
9 8 25
10 0 40
10 1 37
10 2 37
10 3 12
10 4 46
10 5 53
10 6 23
10 7 57
10 8 11
10 9 45
11 0 8
11 1 4
11 2 40
11 3 17
11 4 55
11 5 3
11 6 27
11 7 10
11 8 18
11 9 57
11 10 23
12 0 44
12 1 60
12 2 20
12 3 29
12 4 44
12 5 17
12 6 21
12 7 35
12 8 13
12 9 16
12 10 29
12 11 18
13 0 22
13 1 52
13 2 41
13 3 15
13 4 25
13 5 19
13 6 41
13 7 17
13 8 55
13 9 15
13 10 5
13 11 12
13 12 49
14 0 40
14 1 39
14 2 18
14 3 21
14 4 36
14 5 10
14 6 33
14 7 28
14 8 12
14 9 31
14 10 17
14 11 30
14 12 17
14 13 53
15 0 52
15 1 20
15 2 60
15 3 23
15 4 31
15 5 56
15 6 46
15 7 18
15 8 21
15 9 21
15 10 50
15 11 52
15 12 18
15 13 30
15 14 17
16 0 27
16 1 34
16 2 9
16 3 49
16 4 7
16 5 31
16 6 3
16 7 11
16 8 14
16 9 24
16 10 14
16 11 49
16 12 50
16 13 21
16 14 43
16 15 1
17 0 17
17 1 21
17 2 10
17 3 60
17 4 57
17 5 6
17 6 27
17 7 15
17 8 49
17 9 13
17 10 58
17 11 16
17 12 9
17 13 4
17 14 8
17 15 47
17 16 41
18 0 3
18 1 33
18 2 37
18 3 1
18 4 23
18 5 46
18 6 3
18 7 9
18 8 26
18 9 27
18 10 26
18 11 11
18 12 18
18 13 30
18 14 4
18 15 60
18 16 13
18 17 32
19 0 57
19 1 59
19 2 59
19 3 35
19 4 49
19 5 26
19 6 21
19 7 3
19 8 20
19 9 8
19 10 4
19 11 10
19 12 43
19 13 8
19 14 20
19 15 37
19 16 60
19 17 55
19 18 35
20 0 3
20 1 31
20 2 12
20 3 44
20 4 31
20 5 44
20 6 25
20 7 38
20 8 12
20 9 8
20 10 18
20 11 15
20 12 58
20 13 55
20 14 16
20 15 38
20 16 27
20 17 54
20 18 36
20 19 56
21 0 51
21 1 28
21 2 23
21 3 57
21 4 41
21 5 52
21 6 58
21 7 54
21 8 5
21 9 1
21 10 15
21 11 27
21 12 19
21 13 32
21 14 60
21 15 13
21 16 44
21 17 49
21 18 14
21 19 15
21 20 20
22 0 25
22 1 11
22 2 15
22 3 40
22 4 47
22 5 23
22 6 25
22 7 32
22 8 19
22 9 58
22 10 17
22 11 57
22 12 19
22 13 14
22 14 56
22 15 21
22 16 15
22 17 1
22 18 29
22 19 48
22 20 16
22 21 15
23 0 31
23 1 51
23 2 6
23 3 16
23 4 9
23 5 13
23 6 41
23 7 7
23 8 46
23 9 27
23 10 5
23 11 18
23 12 27
23 13 19
23 14 41
23 15 40
23 16 6
23 17 36
23 18 39
23 19 20
23 20 13
23 21 12
23 22 6
24 0 47
24 1 9
24 2 17
24 3 28
24 4 40
24 5 23
24 6 33
24 7 16
24 8 52
24 9 51
24 10 37
24 11 45
24 12 48
24 13 32
24 14 47
24 15 37
24 16 14
24 17 55
24 18 1
24 19 35
24 20 48
24 21 53
24 22 5
24 23 22
25 0 9
25 1 9
25 2 34
25 3 41
25 4 28
25 5 29
25 6 38
25 7 59
25 8 45
25 9 5
25 10 5
25 11 13
25 12 51
25 13 59
25 14 2
25 15 50
25 16 38
25 17 28
25 18 15
25 19 52
25 20 21
25 21 29
25 22 54
25 23 34
25 24 19
26 0 2
26 1 24
26 2 7
26 3 18
26 4 49
26 5 26
26 6 37
26 7 21
26 8 12
26 9 28
26 10 47
26 11 6
26 12 10
26 13 21
26 14 34
26 15 21
26 16 58
26 17 36
26 18 34
26 19 51
26 20 4
26 21 47
26 22 35
26 23 34
26 24 43
26 25 53
27 0 8
27 1 35
27 2 38
27 3 31
27 4 35
27 5 35
27 6 25
27 7 42
27 8 4
27 9 46
27 10 10
27 11 6
27 12 40
27 13 19
27 14 30
27 15 18
27 16 17
27 17 46
27 18 5
27 19 24
27 20 14
27 21 16
27 22 13
27 23 54
27 24 29
27 25 18
27 26 16
28 0 59
28 1 13
28 2 10
28 3 46
28 4 6
28 5 56
28 6 53
28 7 35
28 8 3
28 9 13
28 10 39
28 11 40
28 12 43
28 13 18
28 14 26
28 15 53
28 16 1
28 17 36
28 18 25
28 19 11
28 20 58
28 21 58
28 22 44
28 23 13
28 24 44
28 25 32
28 26 33
28 27 50
29 0 13
29 1 10
29 2 59
29 3 28
29 4 27
29 5 3
29 6 13
29 7 55
29 8 51
29 9 44
29 10 22
29 11 17
29 12 12
29 13 56
29 14 26
29 15 15
29 16 47
29 17 42
29 18 41
29 19 24
29 20 7
29 21 45
29 22 19
29 23 50
29 24 11
29 25 23
29 26 54
29 27 4
29 28 8
30 0 40
30 1 28
30 2 46
30 3 47
30 4 29
30 5 51
30 6 11
30 7 32
30 8 18
30 9 44
30 10 4
30 11 20
30 12 33
30 13 43
30 14 26
30 15 59
30 16 29
30 17 3
30 18 44
30 19 46
30 20 27
30 21 58
30 22 56
30 23 21
30 24 8
30 25 53
30 26 46
30 27 22
30 28 18
30 29 46
31 0 7
31 1 60
31 2 50
31 3 28
31 4 21
31 5 45
31 6 21
31 7 51
31 8 1
31 9 58
31 10 35
31 11 52
31 12 5
31 13 55
31 14 17
31 15 10
31 16 53
31 17 30
31 18 22
31 19 46
31 20 19
31 21 52
31 22 33
31 23 43
31 24 3
31 25 30
31 26 49
31 27 2
31 28 30
31 29 31
31 30 8
32 0 12
32 1 12
32 2 24
32 3 39
32 4 3
32 5 43
32 6 9
32 7 9
32 8 52
32 9 2
32 10 51
32 11 17
32 12 48
32 13 15
32 14 60
32 15 9
32 16 17
32 17 2
32 18 57
32 19 10
32 20 49
32 21 11
32 22 38
32 23 10
32 24 15
32 25 54
32 26 11
32 27 19
32 28 43
32 29 9
32 30 13
32 31 17
33 0 29
33 1 56
33 2 52
33 3 33
33 4 42
33 5 13
33 6 43
33 7 10
33 8 37
33 9 8
33 10 30
33 11 58
33 12 43
33 13 36
33 14 1
33 15 9
33 16 60
33 17 19
33 18 29
33 19 3
33 20 23
33 21 53
33 22 46
33 23 2
33 24 40
33 25 46
33 26 39
33 27 5
33 28 45
33 29 51
33 30 26
33 31 37
33 32 10
34 0 6
34 1 23
34 2 14
34 3 47
34 4 44
34 5 53
34 6 58
34 7 35
34 8 33
34 9 24
34 10 46
34 11 35
34 12 26
34 13 12
34 14 21
34 15 27
34 16 29
34 17 7
34 18 4
34 19 29
34 20 50
34 21 6
34 22 52
34 23 46
34 24 24
34 25 49
34 26 50
34 27 48
34 28 6
34 29 28
34 30 49
34 31 56
34 32 3
34 33 14
35 0 1
35 1 26
35 2 15
35 3 37
35 4 47
35 5 52
35 6 9
35 7 1
35 8 49
35 9 11
35 10 37
35 11 40
35 12 23
35 13 53
35 14 6
35 15 37
35 16 38
35 17 52
35 18 37
35 19 28
35 20 48
35 21 57
35 22 26
35 23 1
35 24 58
35 25 12
35 26 14
35 27 52
35 28 49
35 29 36
35 30 10
35 31 57
35 32 14
35 33 29
35 34 5
36 0 21
36 1 58
36 2 6
36 3 55
36 4 52
36 5 40
36 6 55
36 7 3
36 8 8
36 9 52
36 10 35
36 11 55
36 12 29
36 13 55
36 14 55
36 15 26
36 16 39
36 17 44
36 18 7
36 19 46
36 20 4
36 21 59
36 22 57
36 23 50
36 24 19
36 25 14
36 26 53
36 27 11
36 28 9
36 29 44
36 30 23
36 31 25
36 32 54
36 33 21
36 34 27
36 35 20
37 0 14
37 1 37
37 2 49
37 3 2
37 4 59
37 5 43
37 6 46
37 7 18
37 8 46
37 9 14
37 10 36
37 11 31
37 12 14
37 13 48
37 14 35
37 15 4
37 16 2
37 17 54
37 18 32
37 19 3
37 20 36
37 21 40
37 22 30
37 23 39
37 24 34
37 25 10
37 26 2
37 27 40
37 28 20
37 29 42
37 30 23
37 31 46
37 32 15
37 33 14
37 34 22
37 35 43
37 36 4
38 0 38
38 1 31
38 2 34
38 3 1
38 4 27
38 5 17
38 6 32
38 7 31
38 8 43
38 9 59
38 10 2
38 11 16
38 12 39
38 13 54
38 14 6
38 15 23
38 16 15
38 17 51
38 18 20
38 19 48
38 20 28
38 21 47
38 22 51
38 23 58
38 24 4
38 25 40
38 26 55
38 27 39
38 28 41
38 29 25
38 30 29
38 31 40
38 32 29
38 33 39
38 34 31
38 35 11
38 36 26
38 37 45
39 0 60
39 1 27
39 2 16
39 3 11
39 4 55
39 5 10
39 6 28
39 7 20
39 8 38
39 9 16
39 10 58
39 11 7
39 12 36
39 13 23
39 14 15
39 15 19
39 16 2
39 17 7
39 18 15
39 19 14
39 20 10
39 21 49
39 22 8
39 23 8
39 24 20
39 25 22
39 26 43
39 27 38
39 28 44
39 29 31
39 30 23
39 31 2
39 32 39
39 33 34
39 34 36
39 35 12
39 36 53
39 37 15
39 38 20
40 0 20
40 1 9
40 2 34
40 3 3
40 4 4
40 5 51
40 6 32
40 7 11
40 8 30
40 9 44
40 10 11
40 11 10
40 12 8
40 13 4
40 14 32
40 15 11
40 16 52
40 17 22
40 18 59
40 19 44
40 20 29
40 21 59
40 22 30
40 23 19
40 24 20
40 25 52
40 26 48
40 27 45
40 28 3
40 29 25
40 30 55
40 31 20
40 32 35
40 33 23
40 34 19
40 35 26
40 36 58
40 37 53
40 38 10
40 39 28
41 0 20
41 1 19
41 2 25
41 3 15
41 4 22
41 5 38
41 6 4
41 7 17
41 8 6
41 9 5
41 10 28
41 11 21
41 12 44
41 13 45
41 14 43
41 15 23
41 16 56
41 17 7
41 18 27
41 19 56
41 20 42
41 21 45
41 22 26
41 23 6
41 24 49
41 25 44
41 26 7
41 27 9
41 28 31
41 29 22
41 30 48
41 31 7
41 32 53
41 33 26
41 34 54
41 35 55
41 36 51
41 37 53
41 38 55
41 39 8
41 40 17
42 0 52
42 1 48
42 2 9
42 3 14
42 4 27
42 5 48
42 6 24
42 7 8
42 8 17
42 9 5
42 10 2
42 11 60
42 12 12
42 13 47
42 14 14
42 15 44
42 16 40
42 17 3
42 18 42
42 19 46
42 20 11
42 21 22
42 22 29
42 23 6
42 24 21
42 25 25
42 26 52
42 27 18
42 28 7
42 29 49
42 30 3
42 31 50
42 32 22
42 33 54
42 34 56
42 35 9
42 36 2
42 37 15
42 38 6
42 39 4
42 40 10
42 41 28
43 0 1
43 1 32
43 2 42
43 3 40
43 4 39
43 5 53
43 6 7
43 7 36
43 8 32
43 9 57
43 10 53
43 11 14
43 12 39
43 13 51
43 14 27
43 15 22
43 16 37
43 17 10
43 18 25
43 19 36
43 20 24
43 21 58
43 22 54
43 23 33
43 24 5
43 25 50
43 26 15
43 27 29
43 28 42
43 29 44
43 30 47
43 31 23
43 32 14
43 33 33
43 34 4
43 35 18
43 36 3
43 37 37
43 38 53
43 39 34
43 40 21
43 41 29
43 42 1
44 0 3
44 1 45
44 2 41
44 3 32
44 4 44
44 5 49
44 6 29
44 7 60
44 8 7
44 9 3
44 10 37
44 11 51
44 12 17
44 13 1
44 14 43
44 15 7
44 16 37
44 17 10
44 18 47
44 19 54
44 20 40
44 21 59
44 22 52
44 23 32
44 24 24
44 25 16
44 26 59
44 27 3
44 28 56
44 29 35
44 30 49
44 31 39
44 32 37
44 33 27
44 34 53
44 35 22
44 36 52
44 37 39
44 38 49
44 39 40
44 40 10
44 41 43
44 42 21
44 43 7
45 0 16
45 1 33
45 2 14
45 3 17
45 4 25
45 5 42
45 6 32
45 7 19
45 8 58
45 9 45
45 10 47
45 11 3
45 12 1
45 13 44
45 14 33
45 15 24
45 16 49
45 17 48
45 18 21
45 19 42
45 20 54
45 21 22
45 22 14
45 23 57
45 24 29
45 25 18
45 26 10
45 27 9
45 28 19
45 29 21
45 30 20
45 31 27
45 32 17
45 33 19
45 34 43
45 35 30
45 36 14
45 37 10
45 38 47
45 39 21
45 40 47
45 41 44
45 42 58
45 43 44
45 44 33
46 0 50
46 1 28
46 2 48
46 3 21
46 4 5
46 5 20
46 6 19
46 7 51
46 8 24
46 9 1
46 10 58
46 11 33
46 12 21
46 13 52
46 14 34
46 15 57
46 16 37
46 17 6
46 18 57
46 19 34
46 20 13
46 21 20
46 22 60
46 23 50
46 24 23
46 25 45
46 26 11
46 27 17
46 28 13
46 29 24
46 30 19
46 31 31
46 32 21
46 33 14
46 34 38
46 35 36
46 36 26
46 37 48
46 38 22
46 39 19
46 40 12
46 41 54
46 42 15
46 43 12
46 44 7
46 45 31
47 0 49
47 1 2
47 2 16
47 3 35
47 4 22
47 5 42
47 6 44
47 7 57
47 8 52
47 9 23
47 10 40
47 11 60
47 12 21
47 13 16
47 14 57
47 15 15
47 16 28
47 17 34
47 18 50
47 19 39
47 20 9
47 21 27
47 22 14
47 23 26
47 24 46
47 25 60
47 26 34
47 27 49
47 28 6
47 29 37
47 30 10
47 31 48
47 32 59
47 33 5
47 34 32
47 35 59
47 36 35
47 37 37
47 38 25
47 39 3
47 40 27
47 41 20
47 42 9
47 43 21
47 44 4
47 45 2
47 46 36
48 0 45
48 1 17
48 2 22
48 3 2
48 4 47
48 5 58
48 6 31
48 7 33
48 8 31
48 9 58
48 10 18
48 11 51
48 12 56
48 13 45
48 14 55
48 15 35
48 16 32
48 17 44
48 18 7
48 19 32
48 20 40
48 21 60
48 22 23
48 23 17
48 24 41
48 25 52
48 26 18
48 27 14
48 28 44
48 29 41
48 30 17
48 31 7
48 32 11
48 33 37
48 34 27
48 35 20
48 36 46
48 37 23
48 38 7
48 39 38
48 40 49
48 41 16
48 42 16
48 43 18
48 44 26
48 45 46
48 46 9
48 47 31
49 0 25
49 1 45
49 2 28
49 3 43
49 4 2
49 5 56
49 6 13
49 7 10
49 8 18
49 9 14
49 10 59
49 11 56
49 12 9
49 13 2
49 14 5
49 15 10
49 16 45
49 17 32
49 18 12
49 19 4
49 20 47
49 21 49
49 22 3
49 23 19
49 24 27
49 25 18
49 26 30
49 27 36
49 28 36
49 29 26
49 30 6
49 31 31
49 32 5
49 33 5
49 34 44
49 35 13
49 36 31
49 37 3
49 38 17
49 39 11
49 40 42
49 41 16
49 42 4
49 43 22
49 44 33
49 45 57
49 46 42
49 47 30
49 48 26
50 0 42
50 1 41
50 2 1
50 3 57
50 4 16
50 5 36
50 6 20
50 7 53
50 8 22
50 9 1
50 10 8
50 11 32
50 12 8
50 13 15
50 14 56
50 15 54
50 16 37
50 17 44
50 18 17
50 19 24
50 20 43
50 21 42
50 22 6
50 23 57
50 24 31
50 25 9
50 26 6
50 27 45
50 28 33
50 29 32
50 30 25
50 31 57
50 32 50
50 33 38
50 34 47
50 35 14
50 36 36
50 37 27
50 38 51
50 39 45
50 40 56
50 41 13
50 42 29
50 43 14
50 44 50
50 45 40
50 46 20
50 47 55
50 48 27
50 49 18
51 0 43
51 1 46
51 2 28
51 3 24
51 4 47
51 5 15
51 6 54
51 7 40
51 8 34
51 9 20
51 10 42
51 11 4
51 12 8
51 13 41
51 14 1
51 15 17
51 16 11
51 17 18
51 18 5
51 19 30
51 20 46
51 21 49
51 22 56
51 23 44
51 24 49
51 25 22
51 26 25
51 27 55
51 28 55
51 29 47
51 30 17
51 31 19
51 32 12
51 33 25
51 34 22
51 35 2
51 36 33
51 37 53
51 38 2
51 39 42
51 40 30
51 41 33
51 42 25
51 43 42
51 44 11
51 45 32
51 46 10
51 47 20
51 48 39
51 49 32
51 50 43
52 0 51
52 1 10
52 2 50
52 3 17
52 4 23
52 5 16
52 6 14
52 7 10
52 8 60
52 9 55
52 10 37
52 11 53
52 12 31
52 13 47
52 14 44
52 15 27
52 16 52
52 17 37
52 18 6
52 19 40
52 20 59
52 21 18
52 22 15
52 23 18
52 24 41
52 25 51
52 26 50
52 27 28
52 28 48
52 29 41
52 30 49
52 31 38
52 32 42
52 33 45
52 34 31
52 35 11
52 36 4
52 37 22
52 38 42
52 39 3
52 40 11
52 41 1
52 42 59
52 43 25
52 44 26
52 45 15
52 46 36
52 47 5
52 48 43
52 49 29
52 50 59
52 51 6
53 0 48
53 1 28
53 2 46
53 3 52
53 4 4
53 5 33
53 6 16
53 7 42
53 8 58
53 9 13
53 10 32
53 11 35
53 12 12
53 13 11
53 14 21
53 15 35
53 16 37
53 17 26
53 18 2
53 19 16
53 20 57
53 21 44
53 22 41
53 23 54
53 24 19
53 25 32
53 26 23
53 27 26
53 28 51
53 29 22
53 30 28
53 31 32
53 32 50
53 33 60
53 34 48
53 35 2
53 36 32
53 37 16
53 38 48
53 39 42
53 40 16
53 41 1
53 42 25
53 43 13
53 44 26
53 45 33
53 46 37
53 47 36
53 48 47
53 49 59
53 50 52
53 51 33
53 52 57
54 0 51
54 1 46
54 2 35
54 3 2
54 4 7
54 5 40
54 6 49
54 7 52
54 8 33
54 9 6
54 10 34
54 11 5
54 12 48
54 13 24
54 14 28
54 15 22
54 16 56
54 17 33
54 18 46
54 19 13
54 20 7
54 21 30
54 22 38
54 23 17
54 24 45
54 25 11
54 26 52
54 27 7
54 28 9
54 29 7
54 30 36
54 31 50
54 32 47
54 33 25
54 34 25
54 35 57
54 36 26
54 37 22
54 38 8
54 39 38
54 40 52
54 41 5
54 42 30
54 43 51
54 44 4
54 45 46
54 46 3
54 47 19
54 48 49
54 49 42
54 50 3
54 51 18
54 52 13
54 53 59
55 0 39
55 1 19
55 2 51
55 3 29
55 4 1
55 5 51
55 6 6
55 7 47
55 8 33
55 9 10
55 10 3
55 11 47
55 12 20
55 13 53
55 14 17
55 15 29
55 16 17
55 17 10
55 18 3
55 19 5
55 20 52
55 21 33
55 22 46
55 23 15
55 24 12
55 25 32
55 26 59
55 27 24
55 28 57
55 29 50
55 30 6
55 31 8
55 32 17
55 33 43
55 34 36
55 35 26
55 36 1
55 37 48
55 38 22
55 39 1
55 40 16
55 41 23
55 42 35
55 43 1
55 44 49
55 45 55
55 46 16
55 47 3
55 48 31
55 49 34
55 50 9
55 51 10
55 52 42
55 53 39
55 54 55
56 0 13
56 1 23
56 2 27
56 3 39
56 4 42
56 5 32
56 6 58
56 7 60
56 8 17
56 9 12
56 10 13
56 11 44
56 12 17
56 13 35
56 14 19
56 15 23
56 16 53
56 17 51
56 18 40
56 19 16
56 20 2
56 21 8
56 22 27
56 23 7
56 24 5
56 25 56
56 26 54
56 27 57
56 28 45
56 29 2
56 30 35
56 31 8
56 32 56
56 33 24
56 34 42
56 35 39
56 36 25
56 37 58
56 38 31
56 39 2
56 40 35
56 41 60
56 42 56
56 43 24
56 44 31
56 45 41
56 46 11
56 47 44
56 48 21
56 49 59
56 50 50
56 51 12
56 52 33
56 53 54
56 54 59
56 55 11
57 0 26
57 1 48
57 2 6
57 3 22
57 4 26
57 5 17
57 6 40
57 7 54
57 8 33
57 9 56
57 10 1
57 11 46
57 12 6
57 13 51
57 14 54
57 15 37
57 16 2
57 17 42
57 18 23
57 19 39
57 20 50
57 21 46
57 22 26
57 23 42
57 24 9
57 25 22
57 26 16
57 27 13
57 28 52
57 29 24
57 30 4
57 31 48
57 32 43
57 33 60
57 34 55
57 35 51
57 36 57
57 37 37
57 38 59
57 39 6
57 40 53
57 41 49
57 42 11
57 43 12
57 44 52
57 45 44
57 46 2
57 47 50
57 48 22
57 49 11
57 50 15
57 51 44
57 52 59
57 53 22
57 54 25
57 55 36
57 56 44
58 0 6
58 1 51
58 2 14
58 3 55
58 4 58
58 5 12
58 6 42
58 7 12
58 8 27
58 9 45
58 10 51
58 11 4
58 12 28
58 13 17
58 14 20
58 15 26
58 16 31
58 17 52
58 18 56
58 19 21
58 20 26
58 21 15
58 22 56
58 23 53
58 24 29
58 25 24
58 26 32
58 27 44
58 28 21
58 29 33
58 30 12
58 31 8
58 32 8
58 33 47
58 34 39
58 35 2
58 36 29
58 37 45
58 38 25
58 39 46
58 40 27
58 41 39
58 42 4
58 43 29
58 44 47
58 45 56
58 46 23
58 47 17
58 48 32
58 49 34
58 50 10
58 51 36
58 52 25
58 53 10
58 54 35
58 55 28
58 56 18
58 57 45
59 0 3
59 1 43
59 2 24
59 3 21
59 4 5
59 5 53
59 6 37
59 7 34
59 8 48
59 9 56
59 10 42
59 11 52
59 12 40
59 13 44
59 14 11
59 15 8
59 16 5
59 17 46
59 18 33
59 19 46
59 20 33
59 21 54
59 22 47
59 23 31
59 24 42
59 25 58
59 26 20
59 27 39
59 28 25
59 29 24
59 30 21
59 31 10
59 32 42
59 33 21
59 34 24
59 35 12
59 36 10
59 37 56
59 38 20
59 39 55
59 40 20
59 41 37
59 42 41
59 43 21
59 44 50
59 45 49
59 46 1
59 47 8
59 48 33
59 49 10
59 50 12
59 51 1
59 52 8
59 53 9
59 54 3
59 55 36
59 56 21
59 57 4
59 58 18
